1
1000
60
495 1
474 1
473 1
472 1
466 1
450 1
445 1
444 1
439 1
430 1
419 1
414 1
410 1
395 1
372 1
370 1
366 1
366 1
366 1
363 1
361 1
357 1
355 1
351 1
350 1
350 1
347 1
320 1
315 1
307 1
303 1
299 1
298 1
298 1
292 1
288 1
287 1
283 1
275 1
275 1
274 1
273 1
273 1
272 1
272 1
271 1
269 1
269 1
268 1
263 1
262 1
261 1
259 1
258 1
255 1
254 1
252 1
252 1
252 1
251 1
